127 139064
1 16 41 31 27 26 33 122 28 32 29 25 38 39 34 43 40 36 37 35 44 103 45 54 57 121 50 13 115 10 120 7 105 106 114 24 108 22 23 4 20 15 6 9 11 3 58 64 113 125 89 92 99 65 66 55 124 52 100 91 61 62 60 90 116 59 104 110 85 86 87 88 96 109 71 67 8 72 19 17 21 78 117 84 81 126 82 83 102 101 98 97 79 18 77 74 73 68 70 69 119 63 75 76 80 12 14 30 42 123 95 93 127 107 111 112 94 46 48 118 49 53 47 56 5 51 2 
